%MEM=4000MB
%NProcShared=4
%Chk=GAUSSIAN.chk

#p
nosym
unit=AU
wb97xd
def2svp
GFINPUT
charge

SHARC-GAUSSIAN job

-1 2
   N -1.510641395872304 6.504450553457468 20.214065887311261
   N -2.827018946001287 5.793221890354059 15.723568275826500
   C -1.431970207524637 6.643250937405394 22.768593884861151
   C 0.519434689406650 8.190152398181617 23.582653884831956
   C 1.762095913090096 9.051669090352345 21.431187462403066
   C 0.473166634939924 8.004447122062532 19.324154170372640
   C 0.846022827664410 8.316507045864315 16.727097886359200
   C -0.769290498321925 7.267372674735083 14.939976330183706
   C -0.895308774754211 7.453076061128042 12.273098445270222
   C -2.944935966531806 6.147400030050074 11.443170415020168
   C -4.124096723206374 5.144212459946164 13.638750604132252
   B -3.334782686854330 4.954678598695992 18.507238794225589
   F -2.853456214502736 2.377594830107268 18.782399925692896
   F -5.846376106823594 5.433298983235286 19.161342926268933
   H 2.123220686024947 9.419249167733296 16.243105010443948
   H -5.515539864234793 4.192714568564211 13.666043918568738
   H 3.164429545782121 10.204186598377737 21.470225424712066
   H 1.014134753551293 8.576877290944140 25.294558672017939
   H -3.557948003967284 5.934892768287241 9.756019150357449
   H -2.531152085372409 5.551996460655805 23.752130192981742
   H 0.367294728735940 8.538587660180996 11.314315659672895

-11.093442580350667 -3.067957137328403 20.214065887311261 -0.054554580229059
-12.409820130479650 -3.779185800431812 15.723568275826500 -0.042863094884429
-11.014771392003000 -2.929156753380477 22.768593884861151 -0.025860108405307
-9.063366495071714 -1.382255292604255 23.582653884831956 -0.248125625723652
-7.820705271388267 -0.520738600433526 21.431187462403066 -0.163122417595629
-9.109634549538441 -1.567960568723338 19.324154170372640 0.056645932241548
-8.736778356813954 -1.255900644921557 16.727097886359200 -0.111784424974134
-10.352091682800289 -2.305035016050788 14.939976330183706 0.035689390058577
-10.478109959232574 -2.119331629657830 12.273098445270222 -0.167262017096041
-12.527737151010170 -3.425007660735797 11.443170415020168 -0.235803034333886
-13.706897907684738 -4.428195230839706 13.638750604132252 -0.023645450104045
-12.917583871332694 -4.617729092089879 18.507238794225589 0.446412983503141
-12.436257398981100 -7.194812860678603 18.782399925692896 -0.343294909083752
-15.429177291301956 -4.139108707550585 19.161342926268933 -0.356616420473187
-7.459580498453415 -0.153158523052574 16.243105010443948 0.191203757873490
-15.098341048713156 -5.379693122221660 13.666043918568738 0.179568350200090
-6.418371638696243 0.631778907591867 21.470225424712066 0.196758152262429
-8.568666430927070 -0.995530399841730 25.294558672017939 0.169784202613521
-13.140749188445648 -3.637514922498631 9.756019150357449 0.172292841887171
-12.113953269850771 -4.020411230130065 23.752130192981742 0.173541821934604
-9.215506455742425 -1.033820030604874 11.314315659672895 0.151034650328550



